32      4       
10      10      10      10      
0       0       0       0       0       2       2       8       
10      1       1       0       1       1       3       
1       0       4       1       5       6       4       10      12      14      15      25      
6       0       4       8       6       2       5       19      
3       4       6       0       4       1       6       
8       1       2       3       0       3       7       13      21      
8       5       0       4       4       1       9       
3       4       6       4       0       4       15      16      30      31      
3       4       5       3       0       1       11      
1       0       6       3       3       1       11      
3       5       6       0       7       4       16      18      30      31      
4       5       4       0       2       5       19      20      29      30      31      
6       3       4       0       1       3       18      30      31      
4       0       3       4       2       2       16      29      
3       4       0       4       4       3       19      20      29      
1       4       0       6       6       1       17      
9       4       5       4       0       2       20      28      
1       3       1       6       0       2       20      29      
9       4       4       2       0       3       22      27      28      
1       0       3       5       7       2       22      27      
1       3       2       2       0       3       24      28      31      
6       0       4       3       5       1       23      
9       0       3       7       4       1       24      
4       3       4       0       1       1       26      
6       0       3       5       5       1       30      
10      4       0       2       3       1       32      
8       6       8       5       0       1       32      
6       3       0       4       5       1       32      
9       6       5       5       0       1       32      
2       6       3       0       5       1       32      
5       6       0       2       4       1       32      
0       0       0       0       0       0       
